\ Model Student Assignment Problem_copy
\ LP format - for model browsing. Use MPS format to capture full model detail.
Minimize
 
Subject To
 R558: MSEM_1 = 45756
 R559: FSEM_1 = 39618
 R562: FSEM_1 + MSEM_1 <= 15
Bounds
 FSEM_1 free
 MSEM_1 free
End
